57520 100 1100 50 59 56 10 59 58 56 6 56 34 47 67 32 37 37 46 29 18 27 43 17 33 16 38 14 66 58 62 16 48 36 35 36 59 8 67 63 18 56 32 63 24 13 51 24 41 5 34 60 66 26 29 27 42 5 22 40 30 36 40 33 41 28 30 22 18 10 43 63 25 36 36 19 68 11 42 28 40 46 37 11 6 45 11 15 40 23 69 29 6 24 58 23 20 15 54 41 51 60 18 82 287 222 63 288 249 160 64 170 169 245 284 130 105 139 116 166 132 88 183 60 71 155 138 130 251 258 261 70 180 166 154 92 196 63 279 251 72 292 111 294 180 70 180 195 188 53 221 232 277 66 143 118 260 51 204 92 121 190 277 159 134 141 78 129 237 152 210 273 231 212 184 79 267 112 125 112 213 117 149 135 123 206 75 99 144 185 249 105 67 103 289 94 131 203 239 135 264 124 122
